
Gurobi 9.5.0 (linux64) logging started Sun Dec  3 19:48:07 2023

Set parameter LogFile to value "/lustre1/scratch/348/vsc34888/JointResearch/05.Models/06.Benchmarking/D.Representative_days_based_on_RES_and_Demand/RTS24_mod1_ByStages_nc300/openStarNet_RTS24_mod1_ByStages_nc300.log"
Set parameter Method to value 2
Set parameter MIPFocus to value 1
Set parameter Presolve to value 2
Set parameter RINS to value 100
Set parameter MIPGap to value 0.01
Set parameter Threads to value 36
Set parameter TimeLimit to value 259200
Set parameter IterationLimit to value 760000000
Gurobi Optimizer version 9.5.0 build v9.5.0rc5 (linux64)
Thread count: 36 physical cores, 36 logical processors, using up to 36 threads
Optimize a model with 106858 rows, 72113 columns and 291276 nonzeros
Model fingerprint: 0x0de71804
Variable types: 72092 continuous, 21 integer (21 binary)
Coefficient statistics:
  Matrix range     [2e-03, 3e+02]
  Objective range  [1e+00, 1e+00]
  Bounds range     [4e-05, 3e+00]
  RHS range        [4e-05, 3e+00]
Presolve removed 63651 rows and 36569 columns
Presolve time: 0.46s
Presolved: 43207 rows, 35544 columns, 156072 nonzeros
Variable types: 35523 continuous, 21 integer (21 binary)
Root relaxation presolved: 43207 rows, 35544 columns, 156072 nonzeros

Root barrier log...

Ordering time: 0.01s

Barrier statistics:
 Dense cols : 21
 AA' NZ     : 2.899e+05
 Factor NZ  : 8.587e+05 (roughly 40 MB of memory)
 Factor Ops : 2.035e+07 (less than 1 second per iteration)
 Threads    : 35

                  Objective                Residual
Iter       Primal          Dual         Primal    Dual     Compl     Time
   0   6.68955967e+05 -7.40671343e+07  5.34e+00 4.71e+01  2.08e+03     1s
   1   1.06797541e+05 -1.92082785e+07  7.11e-01 4.66e-09  2.91e+02     1s
   2   4.13914991e+04 -8.70073655e+06  1.74e-01 1.55e-09  1.01e+02     1s
   3   2.06654904e+04 -8.73095192e+05  5.92e-03 3.44e-10  8.98e+00     1s
   4   1.06928960e+04 -1.17519615e+05  1.36e-04 1.60e-11  1.27e+00     1s
   5   3.52272273e+03 -1.71986092e+04  2.85e-05 1.95e-12  2.06e-01     1s
   6   5.38858710e+02 -4.45816060e+03  1.30e-06 5.29e-13  4.96e-02     1s
   7   3.71070910e+02 -1.78348670e+03  4.98e-07 2.49e-13  2.14e-02     1s
   8   2.05255494e+02 -4.61236394e+02  1.41e-07 3.41e-13  6.62e-03     1s
   9   1.46046767e+02 -1.70981021e+02  7.22e-08 4.55e-13  3.15e-03     1s
  10   1.13817306e+02 -6.65055102e+01  4.29e-08 4.55e-13  1.79e-03     1s
  11   9.47447988e+01  2.11922576e+01  2.63e-08 2.27e-13  7.31e-04     1s
  12   8.80316981e+01  2.60491047e+01  2.07e-08 2.27e-13  6.16e-04     1s
  13   8.16829925e+01  4.27021564e+01  1.55e-08 4.55e-13  3.87e-04     1s
  14   7.41277333e+01  4.67577882e+01  9.28e-09 2.27e-13  2.72e-04     1s
  15   7.12936142e+01  5.12837222e+01  6.89e-09 4.55e-13  1.99e-04     1s
  16   6.86878068e+01  5.38590857e+01  4.76e-09 2.27e-13  1.47e-04     1s
  17   6.72136369e+01  5.78913804e+01  3.51e-09 2.27e-13  9.26e-05     1s
  18   6.57901290e+01  5.94624167e+01  2.43e-09 2.27e-13  6.28e-05     1s
  19   6.50637330e+01  6.03284774e+01  1.84e-09 2.27e-13  4.70e-05     1s
  20   6.47047705e+01  6.07645544e+01  1.53e-09 2.27e-13  3.91e-05     1s
  21   6.44337819e+01  6.10696540e+01  1.29e-09 2.27e-13  3.34e-05     1s
  22   6.38459850e+01  6.16324117e+01  7.98e-10 2.27e-13  2.20e-05     1s
  23   6.32864662e+01  6.20582648e+01  2.56e-10 2.27e-13  1.22e-05     1s
  24   6.31976892e+01  6.23608960e+01  1.74e-10 2.27e-13  8.31e-06     1s
  25   6.31289210e+01  6.25165155e+01  1.12e-10 2.27e-13  6.08e-06     1s
  26   6.31044796e+01  6.26800576e+01  9.05e-11 2.27e-13  4.22e-06     1s
  27   6.30787131e+01  6.28040611e+01  6.67e-11 2.27e-13  2.73e-06     1s
  28   6.30395164e+01  6.28717571e+01  3.11e-11 2.27e-13  1.67e-06     1s
  29   6.30348770e+01  6.29427410e+01  2.68e-11 2.27e-13  9.15e-07     1s
  30   6.30217179e+01  6.29885611e+01  8.22e-11 2.27e-13  3.29e-07     1s
  31   6.30112112e+01  6.29998545e+01  5.29e-11 2.27e-13  1.13e-07     1s
  32   6.30062611e+01  6.30033615e+01  3.80e-11 3.41e-13  2.88e-08     1s
  33   6.30054790e+01  6.30036448e+01  1.91e-10 2.27e-13  1.82e-08     1s
  34   6.30047095e+01  6.30038407e+01  1.40e-10 2.27e-13  8.63e-09     1s
  35   6.30042968e+01  6.30040536e+01  1.38e-10 2.27e-13  2.42e-09     2s
  36   6.30042792e+01  6.30041165e+01  7.31e-11 1.11e-11  1.62e-09     2s
  37   6.30042770e+01  6.30042416e+01  5.67e-11 5.44e-12  3.52e-10     2s
  38   6.30042706e+01  6.30042699e+01  1.18e-10 2.27e-13  6.66e-12     2s
  39   6.30042705e+01  6.30042705e+01  7.00e-11 4.55e-13  6.66e-15     2s

Barrier solved model in 39 iterations and 1.58 seconds (1.31 work units)
Optimal objective 6.30042705e+01


Root relaxation: objective 6.300427e+01, 6853 iterations, 1.31 seconds (1.07 work units)

    Nodes    |    Current Node    |     Objective Bounds      |     Work
 Expl Unexpl |  Obj  Depth IntInf | Incumbent    BestBd   Gap | It/Node Time

     0     0   63.00427    0   18          -   63.00427      -     -    3s
H    0     0                     113.1513776   63.00427  44.3%     -    3s
     0     0   64.05301    0   14  113.15138   64.05301  43.4%     -    6s
H    0     0                     109.1444038   64.05301  41.3%     -    6s
H    0     0                     102.3937561   64.10175  37.4%     -    7s
     0     0   64.10175    0   15  102.39376   64.10175  37.4%     -    7s
     0     0   64.10182    0   15  102.39376   64.10182  37.4%     -    7s
H    0     0                      98.6011573   64.29227  34.8%     -    9s
     0     0   64.29227    0   16   98.60116   64.29227  34.8%     -    9s
     0     0   64.30901    0   13   98.60116   64.30901  34.8%     -   10s
     0     0   64.31051    0   16   98.60116   64.31051  34.8%     -   11s
     0     0   64.31089    0   16   98.60116   64.31089  34.8%     -   11s
     0     0   64.39459    0   13   98.60116   64.39459  34.7%     -   12s
     0     0   64.43088    0   12   98.60116   64.43088  34.7%     -   13s
     0     0   64.43804    0   16   98.60116   64.43804  34.6%     -   13s
     0     0   64.44628    0   11   98.60116   64.44628  34.6%     -   13s
     0     0   64.44702    0   12   98.60116   64.44702  34.6%     -   14s
     0     0   64.47478    0   12   98.60116   64.47478  34.6%     -   15s
     0     0   64.48025    0   14   98.60116   64.48025  34.6%     -   15s
     0     0   64.48143    0   11   98.60116   64.48143  34.6%     -   15s
     0     0   64.48157    0   14   98.60116   64.48157  34.6%     -   15s
H    0     0                      90.9338693   64.48157  29.1%     -   17s
     0     0   64.48995    0   11   90.93387   64.48995  29.1%     -   18s
H    0     0                      81.4667410   64.48995  20.8%     -   51s
     0     2   64.48995    0   11   81.46674   64.48995  20.8%     -   53s
     3     8   65.75462    2   15   81.46674   64.58598  20.7%  4501   56s
    31    58   66.13121    5   15   81.46674   66.04951  18.9%  2599   61s
    63    93   67.86163    6   15   81.46674   66.21008  18.7%  2480   68s
    99   119   69.22534    7   14   81.46674   67.61034  17.0%  2397   89s
H  110   119                      81.4348764   67.65030  16.9%  2342   89s
   135   140   71.51433    8   13   81.43488   67.65030  16.9%  2217  138s
   171   154   75.29980    9   12   81.43488   67.88931  16.6%  2078  140s
   261   181   78.02622   10   11   81.43488   67.88931  16.6%  1881  162s
   355   201     cutoff   10        81.43488   68.73107  15.6%  1841  167s
   414   220     cutoff    8        81.43488   68.74602  15.6%  1818  170s
   543   235   75.50440   10   11   81.43488   68.74602  15.6%  1765  176s
   619   261   78.13698   11   10   81.43488   68.74602  15.6%  1730  180s
   769   279     cutoff   14        81.43488   70.67715  13.2%  1665  186s
   863   303   74.06655    9   12   81.43488   70.67715  13.2%  1613  190s
  1087   294   79.09803   12    9   81.43488   70.67715  13.2%  1491  196s
  1192   288     cutoff   14        81.43488   70.67715  13.2%  1463  226s
  1264   290   81.34896   14    7   81.43488   71.34786  12.4%  1445  230s
  1558   280   78.41071   13    8   81.43488   72.15856  11.4%  1364  237s
  1716   279   81.22209   16    5   81.43488   72.63562  10.8%  1319  240s
  2073   238   77.33849    9   11   81.43488   72.67518  10.8%  1228  247s
  2248   184     cutoff   12        81.43488   72.67518  10.8%  1196  250s
  2624    52   78.70926    8    9   81.43488   74.56655  8.43%  1134  257s
  2879     8   79.54170    8    9   81.43488   75.62543  7.13%  1090  262s
  2916    10   81.15720    9    8   81.43488   76.96796  5.49%  1091  265s

Cutting planes:
  Implied bound: 23
  MIR: 1146
  Relax-and-lift: 157

Explored 2978 nodes (3249478 simplex iterations) in 269.24 seconds (449.15 work units)
Thread count was 36 (of 36 available processors)

Solution count 7: 81.4349 81.4667 90.9339 ... 113.151

Optimal solution found (tolerance 1.00e-02)
Best objective 8.143487643387e+01, best bound 8.143487643387e+01, gap 0.0000%

Gurobi 9.5.0 (linux64) logging started Sun Dec  3 19:53:18 2023

Set parameter LogFile to value "/lustre1/scratch/348/vsc34888/JointResearch/05.Models/06.Benchmarking/D.Representative_days_based_on_RES_and_Demand/RTS24_mod1_ByStages_nc300/openStarNet_RTS24_mod1_ByStages_nc300.log"
Set parameter Method to value 2
Set parameter MIPFocus to value 1
Set parameter Presolve to value 2
Set parameter RINS to value 100
Set parameter MIPGap to value 0.01
Set parameter Threads to value 36
Set parameter TimeLimit to value 259200
Set parameter IterationLimit to value 760000000
No parameters matching 'relax_integrality' found
Gurobi Optimizer version 9.5.0 build v9.5.0rc5 (linux64)
Thread count: 36 physical cores, 36 logical processors, using up to 36 threads
Optimize a model with 106858 rows, 72092 columns and 265971 nonzeros
Model fingerprint: 0xab01a910
Coefficient statistics:
  Matrix range     [2e-03, 3e+02]
  Objective range  [1e+00, 1e+00]
  Bounds range     [4e-05, 3e+00]
  RHS range        [4e-05, 2e+01]
Presolve removed 89355 rows and 40504 columns
Presolve time: 0.13s
Presolved: 17503 rows, 31889 columns, 75398 nonzeros

Ordering time: 0.00s

Barrier statistics:
 AA' NZ     : 3.952e+04
 Factor NZ  : 1.390e+05 (roughly 16 MB of memory)
 Factor Ops : 1.640e+06 (less than 1 second per iteration)
 Threads    : 36

                  Objective                Residual
Iter       Primal          Dual         Primal    Dual     Compl     Time
   0   4.13998349e+06 -3.96206528e+07  5.43e+01 4.82e+01  1.34e+04     0s
   1   2.46660332e+05 -3.06264579e+07  2.64e+00 1.21e-12  1.13e+03     0s
   2   5.56112805e+04 -6.59331874e+06  4.17e-01 2.05e-12  1.75e+02     0s
   3   2.89545095e+04 -1.19754484e+06  5.01e-02 1.28e-12  2.54e+01     0s
   4   1.84513210e+04 -2.84448142e+05  4.62e-03 9.40e-13  5.71e+00     0s
   5   1.00344448e+04 -7.75267744e+04  6.14e-04 4.47e-13  1.63e+00     0s
   6   3.39175610e+03 -3.02540908e+04  1.34e-04 2.47e-13  6.25e-01     0s
   7   7.05267579e+02 -6.03479984e+03  9.71e-06 2.27e-13  1.25e-01     0s
   8   3.76278830e+02 -1.76481016e+03  6.03e-08 2.27e-13  3.98e-02     0s
   9   2.30657087e+02 -5.23356807e+02  9.51e-09 2.27e-13  1.40e-02     0s
  10   1.64289355e+02 -2.02067150e+02  4.01e-09 1.14e-13  6.80e-03     0s
  11   1.15768646e+02 -2.18945671e+01  1.26e-09 1.14e-13  2.56e-03     0s
  12   8.95643363e+01  6.30511124e+01  1.92e-10 1.14e-13  4.92e-04     0s
  13   8.37358957e+01  7.59076202e+01  5.03e-11 1.14e-13  1.45e-04     0s
  14   8.24168415e+01  7.94478121e+01  1.27e-10 2.27e-13  5.51e-05     0s
  15   8.17601034e+01  8.06866472e+01  4.15e-11 1.14e-13  1.99e-05     0s
  16   8.15473989e+01  8.11664689e+01  4.93e-11 2.27e-13  7.07e-06     0s
  17   8.14607230e+01  8.13628545e+01  7.28e-11 1.14e-13  1.82e-06     0s
  18   8.14385792e+01  8.14280997e+01  6.07e-11 2.27e-13  1.95e-07     0s
  19   8.14349413e+01  8.14343488e+01  8.23e-11 1.14e-13  1.10e-08     0s
  20   8.14348765e+01  8.14348759e+01  4.32e-11 2.27e-13  1.14e-11     0s
  21   8.14348764e+01  8.14348764e+01  2.31e-12 1.14e-13  3.52e-17     0s

Barrier solved model in 21 iterations and 0.38 seconds (0.32 work units)
Optimal objective 8.14348764e+01

Crossover log...

    3843 DPushes remaining with DInf 0.0000000e+00                 0s
       0 DPushes remaining with DInf 0.0000000e+00                 0s

     999 PPushes remaining with PInf 0.0000000e+00                 0s
       0 PPushes remaining with PInf 0.0000000e+00                 0s

  Push phase complete: Pinf 0.0000000e+00, Dinf 1.2175904e-13      0s

Iteration    Objective       Primal Inf.    Dual Inf.      Time
    1019    8.1434876e+01   0.000000e+00   0.000000e+00      0s

Use crossover to convert LP symmetric solution to basic solution...
Crossover log...

       0 DPushes remaining with DInf 0.0000000e+00                 0s

     778 PPushes remaining with PInf 0.0000000e+00                 0s
       0 PPushes remaining with PInf 0.0000000e+00                 0s

  Push phase complete: Pinf 0.0000000e+00, Dinf 1.1859342e-13      0s

Iteration    Objective       Primal Inf.    Dual Inf.      Time
    1804    8.1434876e+01   0.000000e+00   0.000000e+00      1s

Solved in 1804 iterations and 0.56 seconds (0.43 work units)
Optimal objective  8.143487643e+01
